5 5
7 2 3 15 1 9 5 4 7 3 16 1 18 5 17 2 20 1 5 19 4 1 3 5 16 4 9 3 16 5 5 18 1 14 3 6 4 6 2 11 4 5 17 4 7 3 13 2 7 5 4 4 2 14 3 19 1 16 5 19
4 5 4 3 5 10 3 11 1 14 2 2 4 3 6 1 10 2 10 5 14 4 5 3 3 16 2 19 1 8 2 1 4 2 18
4 1 2 5 4 5 3 4 7 1 14 2 5 3 1 8 3 15 2 7 2 4 9 3 19
4 4 3 6 2 15 1 6 5 18 4 3 10 5 9 4 16 2 12 1 5 7 5 1 6 5 5 2 20 4 7 3 4
6 3 3 5 1 12 5 13 1 4 6 1 1 10 2 4 5 3 12 3 4 15 5 2 1 5 4 3 8 1 6 4 10 5 12